100
100
3000 3000 3000 3000 3000 3000 3000 3000 3000 3000 3000 3000 3000 3000 3000 3000 3000 3000 3000 3000 3000 3000 3000 3000 3000 3000 3000 3000 3000 3000 3000 3000 3000 3000 3000 3000 3000 3000 3000 3000 3000 3000 3000 3000 3000 3000 3000 3000 3000 3000 3000 3000 3000 3000 3000 3000 3000 3000 3000 3000 3000 3000 3000 3000 3000 3000 3000 3000 3000 3000 3000 3000 3000 3000 3000 3000 3000 3000 3000 3000 3000 3000 3000 3000 3000 3000 3000 3000 3000 3000 3000 3000 3000 3000 3000 3000 3000 3000 3000 3000
0 1 3
0 9 4
0 12 2
0 19 1
0 25 0
0 30 4
0 49 1
0 54 2
0 59 3
0 66 1
1 8 3
1 25 3
1 34 0
1 39 3
1 42 0
1 44 3
1 45 4
1 57 1
1 64 0
1 69 4
2 10 2
2 19 2
2 20 0
2 31 2
2 38 2
2 42 3
2 44 1
2 60 1
2 67 3
2 72 2
3 5 2
3 12 4
3 30 3
3 32 3
3 69 3
3 70 2
3 75 0
3 81 2
3 83 4
3 89 1
4 8 4
4 16 0
4 22 3
4 24 2
4 26 0
4 35 3
4 44 0
4 50 0
4 69 1
4 71 1
5 7 3
5 9 0
5 27 0
5 31 1
5 36 4
5 48 4
5 49 4
5 73 4
5 89 2
5 97 3
6 7 0
6 8 3
6 11 3
6 18 4
6 33 1
6 75 3
6 82 0
6 85 1
6 87 0
6 94 2
7 13 0
7 27 2
7 40 4
7 43 4
7 49 1
7 70 0
7 74 1
7 84 3
7 85 2
7 97 0
8 1 2
8 11 0
8 17 1
8 52 3
8 70 1
8 87 3
8 89 1
8 94 1
8 96 1
8 97 1
9 4 1
9 7 1
9 13 1
9 18 3
9 25 0
9 56 2
9 60 4
9 73 1
9 79 4
9 88 1
10 8 2
10 26 3
10 31 0
10 34 0
10 38 4
10 39 4
10 48 4
10 50 0
10 51 3
10 55 0
11 9 0
11 19 2
11 25 0
11 38 3
11 55 4
11 56 4
11 65 3
11 74 2
11 86 4
11 92 0
12 5 0
12 6 2
12 18 4
12 19 2
12 23 1
12 36 1
12 43 3
12 49 4
12 68 3
12 70 4
13 0 2
13 21 0
13 22 1
13 25 3
13 29 1
13 30 0
13 33 1
13 37 1
13 45 1
13 58 2
14 1 4
14 8 4
14 40 2
14 42 1
14 43 1
14 46 3
14 51 3
14 65 2
14 70 0
14 71 4
15 14 4
15 36 2
15 54 1
15 63 4
15 69 0
15 78 4
15 80 4
15 95 1
15 97 4
15 99 0
16 1 1
16 7 0
16 40 3
16 59 3
16 60 4
16 67 3
16 82 2
16 85 3
16 87 1
16 90 4
17 2 3
17 16 3
17 22 4
17 28 3
17 36 1
17 40 1
17 64 2
17 66 2
17 75 0
17 76 0
18 1 1
18 4 4
18 17 1
18 37 2
18 42 3
18 74 3
18 80 0
18 88 4
18 90 3
18 95 4
19 3 1
19 4 0
19 8 1
19 14 1
19 28 0
19 29 4
19 33 1
19 40 0
19 53 4
19 58 3
20 29 1
20 52 0
20 59 0
20 60 1
20 61 1
20 63 1
20 64 2
20 84 0
20 88 0
20 93 1
21 11 4
21 14 0
21 15 0
21 18 2
21 32 1
21 38 3
21 56 2
21 63 2
21 72 0
21 74 3
22 5 1
22 9 2
22 47 1
22 51 4
22 59 3
22 72 0
22 79 1
22 82 4
22 86 1
22 88 4
23 0 1
23 16 3
23 23 0
23 36 2
23 37 0
23 41 4
23 51 2
23 59 0
23 67 3
23 78 3
24 0 3
24 4 1
24 6 2
24 10 0
24 50 1
24 53 3
24 60 0
24 78 2
24 83 2
24 92 2
25 21 1
25 26 0
25 33 4
25 42 2
25 49 0
25 51 1
25 64 0
25 70 2
25 77 3
25 83 2
26 1 3
26 6 3
26 9 3
26 15 4
26 19 1
26 21 0
26 32 2
26 41 1
26 45 0
26 47 3
27 2 0
27 3 3
27 19 2
27 62 4
27 71 0
27 84 2
27 90 1
27 97 2
27 98 2
27 99 2
28 13 4
28 16 3
28 44 2
28 57 3
28 68 4
28 69 3
28 72 1
28 76 3
28 81 1
28 85 4
29 9 2
29 20 3
29 45 3
29 54 1
29 66 3
29 74 4
29 80 2
29 87 3
29 91 2
29 92 2
30 6 2
30 28 0
30 68 3
30 75 2
30 85 1
30 86 1
30 88 3
30 95 3
30 98 0
30 99 0
31 30 1
31 41 0
31 57 2
31 62 0
31 89 4
31 91 1
31 93 4
31 94 4
31 95 0
31 99 4
32 4 2
32 14 1
32 38 4
32 50 0
32 53 1
32 63 2
32 65 4
32 83 1
32 84 0
32 92 2
33 43 3
33 46 1
33 53 0
33 55 2
33 73 1
33 83 0
33 86 3
33 87 2
33 93 3
33 96 0
34 16 0
34 34 3
34 49 3
34 54 4
34 61 1
34 75 2
34 83 1
34 84 3
34 89 4
34 96 4
35 7 1
35 11 0
35 24 0
35 31 0
35 46 1
35 47 4
35 53 1
35 54 2
35 58 4
35 60 0
36 11 4
36 17 4
36 36 0
36 42 0
36 54 3
36 55 4
36 58 4
36 62 2
36 71 2
36 79 2
37 2 2
37 3 2
37 18 2
37 19 0
37 20 4
37 21 1
37 55 1
37 93 0
37 96 1
37 99 1
38 2 2
38 13 0
38 29 0
38 31 1
38 70 2
38 88 0
38 90 4
38 91 4
38 94 4
38 95 3
39 28 1
39 46 1
39 48 0
39 54 2
39 68 3
39 95 0
39 96 4
39 97 2
39 98 3
39 99 4
40 18 0
40 23 1
40 30 1
40 37 1
40 42 0
40 45 1
40 50 4
40 62 1
40 72 4
40 73 1
41 22 2
41 45 3
41 58 3
41 67 1
41 75 3
41 77 0
41 78 4
41 81 3
41 94 2
41 98 2
42 0 3
42 17 4
42 26 3
42 52 1
42 58 0
42 70 4
42 72 0
42 80 2
42 82 2
42 84 0
43 11 3
43 18 4
43 34 0
43 35 3
43 36 3
43 52 2
43 59 3
43 62 2
43 63 2
43 66 4
44 2 1
44 6 1
44 12 4
44 14 1
44 21 4
44 34 4
44 37 2
44 41 3
44 54 0
44 57 4
45 14 3
45 15 3
45 41 4
45 50 1
45 61 4
45 79 4
45 90 1
45 92 2
45 94 1
45 96 4
46 12 4
46 13 2
46 19 2
46 20 1
46 47 3
46 66 2
46 67 0
46 74 4
46 80 1
46 88 2
47 17 3
47 30 0
47 35 4
47 40 4
47 42 3
47 68 1
47 81 2
47 87 3
47 89 4
47 91 1
48 10 4
48 22 4
48 32 1
48 36 4
48 65 1
48 76 4
48 78 3
48 83 1
48 85 2
48 88 2
49 13 2
49 27 0
49 34 2
49 44 2
49 83 2
49 89 4
49 95 0
49 97 4
49 98 3
49 99 0
50 16 4
50 23 0
50 27 2
50 39 2
50 40 3
50 55 1
50 66 4
50 73 4
50 81 4
50 83 1
51 1 1
51 8 0
51 15 1
51 17 2
51 18 3
51 38 3
51 44 3
51 57 1
51 63 3
51 64 1
52 4 3
52 22 2
52 35 1
52 46 3
52 48 4
52 61 4
52 64 1
52 67 3
52 71 3
52 72 3
53 10 1
53 17 2
53 26 0
53 37 2
53 43 4
53 77 0
53 79 0
53 82 0
53 86 1
53 87 1
54 2 2
54 23 2
54 25 1
54 31 0
54 39 0
54 60 1
54 67 1
54 84 2
54 91 3
54 95 4
55 33 2
55 35 2
55 46 3
55 56 1
55 61 0
55 62 1
55 70 1
55 76 2
55 77 4
55 90 2
56 3 2
56 5 1
56 6 2
56 19 2
56 27 3
56 31 0
56 33 3
56 49 4
56 53 0
56 71 4
57 2 1
57 11 3
57 15 3
57 22 3
57 35 3
57 47 2
57 67 4
57 79 0
57 80 2
57 86 1
58 9 1
58 24 2
58 25 2
58 28 0
58 31 3
58 44 4
58 52 2
58 67 4
58 77 0
58 92 3
59 9 3
59 14 0
59 21 0
59 23 3
59 29 1
59 48 1
59 69 0
59 72 2
59 77 0
59 80 2
60 0 3
60 2 3
60 10 3
60 33 3
60 37 0
60 38 2
60 47 0
60 52 2
60 61 3
60 66 1
61 10 4
61 25 1
61 26 2
61 32 0
61 41 3
61 65 3
61 71 2
61 73 2
61 74 4
61 90 4
62 15 3
62 19 0
62 30 4
62 39 2
62 48 1
62 52 0
62 62 4
62 63 4
62 68 4
62 79 1
63 3 0
63 12 4
63 23 4
63 31 0
63 33 3
63 58 2
63 61 4
63 64 4
63 80 2
63 86 2
64 2 2
64 6 2
64 11 0
64 13 2
64 20 2
64 23 3
64 30 1
64 33 2
64 38 0
64 48 1
65 0 0
65 6 0
65 10 1
65 15 1
65 16 2
65 17 2
65 29 4
65 32 0
65 34 1
65 35 4
66 4 0
66 7 2
66 18 1
66 43 1
66 48 3
66 68 0
66 72 0
66 77 4
66 87 2
66 90 4
67 3 2
67 4 1
67 5 0
67 16 2
67 26 1
67 28 1
67 49 3
67 63 2
67 64 2
67 65 4
68 21 0
68 26 0
68 53 4
68 57 2
68 65 2
68 76 1
68 91 3
68 94 0
68 98 4
68 99 3
69 7 3
69 35 4
69 39 4
69 45 2
69 69 1
69 74 2
69 78 3
69 84 3
69 90 0
69 98 0
70 5 0
70 13 1
70 15 2
70 39 2
70 51 1
70 66 1
70 80 0
70 81 2
70 85 1
70 92 4
71 0 3
71 7 0
71 20 2
71 22 3
71 27 2
71 28 2
71 39 0
71 50 1
71 60 2
71 67 3
72 4 1
72 13 4
72 16 1
72 24 0
72 25 4
72 32 1
72 34 2
72 55 0
72 56 2
72 57 2
73 8 1
73 12 2
73 30 2
73 44 3
73 45 4
73 46 3
73 47 2
73 52 1
73 56 1
73 73 3
74 14 1
74 16 1
74 28 0
74 56 4
74 64 2
74 77 2
74 80 2
74 81 0
74 92 4
74 93 0
75 3 3
75 6 0
75 24 1
75 66 1
75 78 4
75 87 4
75 88 2
75 93 3
75 95 0
75 96 1
76 13 4
76 38 1
76 48 0
76 53 1
76 61 3
76 62 4
76 68 2
76 85 0
76 87 3
76 89 2
77 20 2
77 21 3
77 24 4
77 58 1
77 70 2
77 75 2
77 76 3
77 81 1
77 93 3
77 96 0
78 1 3
78 11 2
78 17 4
78 40 0
78 43 3
78 51 4
78 56 2
78 68 0
78 75 0
78 91 3
79 3 2
79 5 2
79 8 4
79 24 0
79 35 4
79 51 3
79 57 2
79 58 2
79 59 2
79 79 2
80 5 0
80 17 0
80 24 4
80 27 4
80 31 4
80 38 0
80 51 1
80 71 3
80 78 1
80 91 0
81 0 2
81 1 4
81 22 0
81 23 4
81 29 4
81 69 2
81 73 1
81 92 1
81 94 4
81 97 3
82 12 0
82 40 4
82 47 0
82 50 0
82 58 3
82 64 4
82 74 0
82 84 4
82 85 2
82 91 2
83 5 3
83 11 3
83 35 4
83 46 3
83 55 4
83 73 3
83 83 0
83 94 4
83 97 4
83 98 4
84 6 1
84 12 1
84 20 4
84 36 1
84 43 4
84 45 3
84 69 0
84 73 3
84 76 4
84 79 3
85 21 3
85 25 4
85 27 3
85 29 3
85 32 2
85 65 0
85 69 4
85 82 4
85 86 2
85 89 4
86 0 2
86 18 0
86 30 4
86 32 0
86 39 2
86 47 3
86 56 4
86 81 4
86 82 2
86 86 1
87 0 3
87 12 3
87 23 2
87 28 1
87 32 3
87 37 0
87 42 4
87 44 2
87 47 1
87 54 3
88 7 3
88 24 3
88 27 0
88 45 0
88 50 3
88 57 3
88 60 1
88 68 3
88 76 3
88 78 2
89 3 0
89 4 3
89 9 3
89 14 1
89 22 4
89 26 3
89 37 4
89 41 1
89 48 3
89 56 0
90 5 2
90 10 4
90 20 1
90 34 0
90 43 1
90 53 2
90 55 3
90 61 0
90 62 0
90 76 3
91 10 2
91 20 3
91 21 2
91 28 0
91 39 4
91 41 3
91 44 0
91 50 0
91 57 0
91 59 1
92 3 0
92 29 2
92 46 0
92 52 0
92 61 2
92 62 2
92 74 4
92 75 0
92 82 4
92 85 3
93 9 1
93 26 1
93 27 1
93 41 2
93 46 4
93 51 1
93 52 3
93 54 4
93 59 4
93 60 2
94 24 4
94 34 3
94 53 1
94 66 1
94 91 1
94 95 3
94 96 1
94 97 3
94 98 0
94 99 3
95 1 2
95 33 0
95 41 4
95 49 2
95 59 1
95 63 4
95 65 0
95 75 3
95 79 4
95 86 1
96 15 4
96 29 0
96 40 0
96 43 2
96 71 3
96 88 4
96 89 3
96 93 3
96 98 2
96 99 1
97 2 1
97 8 3
97 42 4
97 49 2
97 55 3
97 71 2
97 92 4
97 93 4
97 94 2
97 96 1
98 7 0
98 12 4
98 15 4
98 36 1
98 65 0
98 76 4
98 77 3
98 78 4
98 82 4
98 84 1
99 10 4
99 14 1
99 37 0
99 63 1
99 72 0
99 77 4
99 81 1
99 82 4
99 90 3
99 93 1
